NAME: ch150
COMMENT: Integrantes: Leticia Almeida, Isabelli Pinho e Elislandia Aparecida; Metodo: VND com multi-start filtrado, Vizinho Mais Proximo, 2-Opt e Swap
TYPE: TOUR
DIMENSION: 150
TOTAL_WEIGHT: 6636
TOUR_SECTION
4
104
22
125
149
62
3
113
10
94
88
121
79
59
16
111
105
33
126
52
93
35
96
89
8
7
84
30
63
48
73
76
34
87
1
98
103
82
95
107
5
100
143
97
124
146
26
75
18
142
85
65
132
137
102
114
99
19
2
37
6
28
9
42
120
139
40
53
24
118
127
69
36
61
11
148
130
17
66
60
140
117
57
39
41
101
116
12
51
20
25
47
110
81
29
86
108
70
135
50
55
58
141
83
56
90
46
92
54
138
134
109
43
67
38
23
32
131
77
122
14
80
133
15
78
21
64
112
136
145
72
147
49
144
129
27
31
123
74
13
106
91
119
68
128
45
71
44
115
150
EOF
